JulietBench/Juliet_Based_Patch_Bench/linux/CWE-189-Numeric-Errors/CVE_2011_2496_982134ba62618c2d69fbbbd166d0a11ee3b7e3d8/Resultvma_to_resize_Snippet_patch2EQ.smt2
; benchmark generated from python API
(set-info :status unknown)
(declare-fun R () (_ BitVec 32))
(declare-fun r8 () (_ BitVec 64))
(declare-fun rdi () (_ BitVec 64))
(declare-fun rcx () (_ BitVec 64))
(declare-fun rsi () (_ BitVec 64))
(declare-fun rdx () (_ BitVec 64))
(assert
 (let (($x140 (= (_ bv1 32) R)))
 (let ((?x62 ((_ extract 23 0) r8)))
 (let ((?x72 (bvand ?x62 (_ bv263168 24))))
 (let (($x63 (= (_ bv0 24) ?x72)))
 (let (($x155 (and $x63 $x140)))
 (let (($x109 (and (distinct (_ bv0 24) ?x72) true)))
 (let (($x153 (and $x109 $x140)))
 (let (($x145 (or $x153 $x155)))
 (let (($x149 (= (_ bv4294967295 32) R)))
 (let (($x38 (bvugt rcx rdi)))
 (let (($x154 (and $x38 $x149)))
 (let (($x15 (bvule rcx rdi)))
 (let (($x138 (and $x63 $x15 $x140)))
 (let (($x115 (bvule rdx rsi)))
 (let (($x147 (and $x115 $x109 $x15 $x140)))
 (let (($x123 (bvugt rdx rsi)))
 (let (($x142 (and $x123 $x109 $x15 $x149)))
 (let (($x152 (or $x142 $x147 $x138 $x154)))
 (and $x152 $x145))))))))))))))))))))
(check-sat)
